c b=6,c=33
p cnf 18 64
1 6 -12 0
6 -17 0
1 -6 12 0
1 -6 17 0
5 -11 0
1 5 -16 0
-5 11 0
1 -5 16 0
4 -10 0
1 4 -15 0
-4 10 0
1 -4 15 0
3 -9 0
1 3 -14 0
-3 9 0
1 -3 14 0
2 -8 0
1 2 -13 0
-2 8 0
1 -2 13 0
1 -7 0
1 -18 0
-1 6 12 0
2 6 -13 0
-1 -6 -12 0
-1 2 -6 13 0
2 -6 17 0
2 5 -16 0
2 -5 16 0
2 4 -15 0
2 -4 15 0
2 3 -14 0
2 -3 14 0
2 -18 0
-2 6 13 0
3 6 -14 0
-1 -2 -6 -13 0
-1 -2 3 -6 14 0
3 -6 17 0
3 5 -16 0
3 -5 16 0
3 4 -15 0
3 -4 15 0
3 -18 0
-3 6 14 0
4 6 -15 0
-1 -2 -3 -6 -14 0
-1 -2 -3 4 -6 15 0
4 -6 17 0
4 5 -16 0
4 -5 16 0
4 -18 0
-4 6 15 0
5 6 -16 0
-1 -2 -3 -4 -6 -15 0
-1 -2 -3 -4 5 -6 16 0
5 -6 17 0
5 -18 0
-5 6 16 0
6 -18 0
-1 -2 -3 -4 -5 -6 -16 0
-1 -2 -3 -4 -5 -6 18 0
-1 -2 -3 -4 -5 -17 0
-1 7 0
